1
1000
60
487 1
480 1
478 1
476 1
465 1
454 1
432 1
422 1
412 1
410 1
410 1
407 1
406 1
392 1
380 1
378 1
373 1
370 1
370 1
366 1
365 1
365 1
362 1
353 1
330 1
329 1
327 1
326 1
324 1
322 1
318 1
314 1
307 1
303 1
297 1
296 1
293 1
286 1
281 1
281 1
279 1
279 1
273 1
268 1
267 1
266 1
265 1
264 1
264 1
263 1
261 1
260 1
260 1
260 1
256 1
256 1
255 1
255 1
252 1
250 1
